data;

set A := 944100180 281847806 761035020 596300328 338847146 566574182 472073425 549515388 51912673 830667475 171674316 116344986 796143620 337707527 350427541 15671484 445181263 785792068 648355355 583081148 429054062 156087694 547922396 385079385 189511620 932575213 581778218 512458098 853213602 570991016 57706855 955701832 562199179 934838666 55851337 708361152 814146422 41676575 225236246 270310302 419039755 438036727 456032488 185787083 480257252 210873058 450821866 798074256;
param T := 12000000000;

end;
